(set-logic QF_LRA)
(declare-fun X0 () Real )
(declare-fun Y0 () Real )
(declare-fun X1 () Real )
(declare-fun Y1 () Real )
(declare-fun X2 () Real )
(declare-fun Y2 () Real )
(declare-fun X3 () Real )
(declare-fun Y3 () Real )
(declare-fun X4 () Real )
(declare-fun Y4 () Real )
(declare-fun X5 () Real )
(declare-fun Y5 () Real )
(declare-fun X6 () Real )
(declare-fun Y6 () Real )
(declare-fun X7 () Real )
(declare-fun Y7 () Real )
(declare-fun X8 () Real )
(declare-fun Y8 () Real )
(declare-fun X9 () Real )
(declare-fun Y9 () Real )
(declare-fun X10 () Real )
(declare-fun Y10 () Real )
(declare-fun X11 () Real )
(declare-fun Y11 () Real )
(declare-fun Z () Real )
(declare-fun k () Real )
(assert (let
(( $goal (>= Z k) ))
(let
((
$phi ( and 
( or ( <= ( + X0 36 ) X1 )  ( <= ( + X1 86 ) X0 )  ( <= ( + Y0 20 ) Y1 )  ( <= ( + Y1 35 ) Y0 )  )
( or ( <= ( + X0 36 ) X2 )  ( <= ( + X2 36 ) X0 )  ( <= ( + Y0 20 ) Y2 )  ( <= ( + Y2 92 ) Y0 )  )
( or ( <= ( + X0 36 ) X3 )  ( <= ( + X3 14 ) X0 )  ( <= ( + Y0 20 ) Y3 )  ( <= ( + Y3 74 ) Y0 )  )
( or ( <= ( + X0 36 ) X4 )  ( <= ( + X4 68 ) X0 )  ( <= ( + Y0 20 ) Y4 )  ( <= ( + Y4 45 ) Y0 )  )
( or ( <= ( + X0 36 ) X5 )  ( <= ( + X5 16 ) X0 )  ( <= ( + Y0 20 ) Y5 )  ( <= ( + Y5 83 ) Y0 )  )
( or ( <= ( + X0 36 ) X6 )  ( <= ( + X6 71 ) X0 )  ( <= ( + Y0 20 ) Y6 )  ( <= ( + Y6 12 ) Y0 )  )
( or ( <= ( + X0 36 ) X7 )  ( <= ( + X7 66 ) X0 )  ( <= ( + Y0 20 ) Y7 )  ( <= ( + Y7 78 ) Y0 )  )
( or ( <= ( + X0 36 ) X8 )  ( <= ( + X8 49 ) X0 )  ( <= ( + Y0 20 ) Y8 )  ( <= ( + Y8 42 ) Y0 )  )
( or ( <= ( + X0 36 ) X9 )  ( <= ( + X9 81 ) X0 )  ( <= ( + Y0 20 ) Y9 )  ( <= ( + Y9 27 ) Y0 )  )
( or ( <= ( + X0 36 ) X10 )  ( <= ( + X10 71 ) X0 )  ( <= ( + Y0 20 ) Y10 )  ( <= ( + Y10 95 ) Y0 )  )
( or ( <= ( + X0 36 ) X11 )  ( <= ( + X11 74 ) X0 )  ( <= ( + Y0 20 ) Y11 )  ( <= ( + Y11 61 ) Y0 )  )
( or ( <= ( + X1 86 ) X2 )  ( <= ( + X2 36 ) X1 )  ( <= ( + Y1 35 ) Y2 )  ( <= ( + Y2 92 ) Y1 )  )
( or ( <= ( + X1 86 ) X3 )  ( <= ( + X3 14 ) X1 )  ( <= ( + Y1 35 ) Y3 )  ( <= ( + Y3 74 ) Y1 )  )
( or ( <= ( + X1 86 ) X4 )  ( <= ( + X4 68 ) X1 )  ( <= ( + Y1 35 ) Y4 )  ( <= ( + Y4 45 ) Y1 )  )
( or ( <= ( + X1 86 ) X5 )  ( <= ( + X5 16 ) X1 )  ( <= ( + Y1 35 ) Y5 )  ( <= ( + Y5 83 ) Y1 )  )
( or ( <= ( + X1 86 ) X6 )  ( <= ( + X6 71 ) X1 )  ( <= ( + Y1 35 ) Y6 )  ( <= ( + Y6 12 ) Y1 )  )
( or ( <= ( + X1 86 ) X7 )  ( <= ( + X7 66 ) X1 )  ( <= ( + Y1 35 ) Y7 )  ( <= ( + Y7 78 ) Y1 )  )
( or ( <= ( + X1 86 ) X8 )  ( <= ( + X8 49 ) X1 )  ( <= ( + Y1 35 ) Y8 )  ( <= ( + Y8 42 ) Y1 )  )
( or ( <= ( + X1 86 ) X9 )  ( <= ( + X9 81 ) X1 )  ( <= ( + Y1 35 ) Y9 )  ( <= ( + Y9 27 ) Y1 )  )
( or ( <= ( + X1 86 ) X10 )  ( <= ( + X10 71 ) X1 )  ( <= ( + Y1 35 ) Y10 )  ( <= ( + Y10 95 ) Y1 )  )
( or ( <= ( + X1 86 ) X11 )  ( <= ( + X11 74 ) X1 )  ( <= ( + Y1 35 ) Y11 )  ( <= ( + Y11 61 ) Y1 )  )
( or ( <= ( + X2 36 ) X3 )  ( <= ( + X3 14 ) X2 )  ( <= ( + Y2 92 ) Y3 )  ( <= ( + Y3 74 ) Y2 )  )
( or ( <= ( + X2 36 ) X4 )  ( <= ( + X4 68 ) X2 )  ( <= ( + Y2 92 ) Y4 )  ( <= ( + Y4 45 ) Y2 )  )
( or ( <= ( + X2 36 ) X5 )  ( <= ( + X5 16 ) X2 )  ( <= ( + Y2 92 ) Y5 )  ( <= ( + Y5 83 ) Y2 )  )
( or ( <= ( + X2 36 ) X6 )  ( <= ( + X6 71 ) X2 )  ( <= ( + Y2 92 ) Y6 )  ( <= ( + Y6 12 ) Y2 )  )
( or ( <= ( + X2 36 ) X7 )  ( <= ( + X7 66 ) X2 )  ( <= ( + Y2 92 ) Y7 )  ( <= ( + Y7 78 ) Y2 )  )
( or ( <= ( + X2 36 ) X8 )  ( <= ( + X8 49 ) X2 )  ( <= ( + Y2 92 ) Y8 )  ( <= ( + Y8 42 ) Y2 )  )
( or ( <= ( + X2 36 ) X9 )  ( <= ( + X9 81 ) X2 )  ( <= ( + Y2 92 ) Y9 )  ( <= ( + Y9 27 ) Y2 )  )
( or ( <= ( + X2 36 ) X10 )  ( <= ( + X10 71 ) X2 )  ( <= ( + Y2 92 ) Y10 )  ( <= ( + Y10 95 ) Y2 )  )
( or ( <= ( + X2 36 ) X11 )  ( <= ( + X11 74 ) X2 )  ( <= ( + Y2 92 ) Y11 )  ( <= ( + Y11 61 ) Y2 )  )
( or ( <= ( + X3 14 ) X4 )  ( <= ( + X4 68 ) X3 )  ( <= ( + Y3 74 ) Y4 )  ( <= ( + Y4 45 ) Y3 )  )
( or ( <= ( + X3 14 ) X5 )  ( <= ( + X5 16 ) X3 )  ( <= ( + Y3 74 ) Y5 )  ( <= ( + Y5 83 ) Y3 )  )
( or ( <= ( + X3 14 ) X6 )  ( <= ( + X6 71 ) X3 )  ( <= ( + Y3 74 ) Y6 )  ( <= ( + Y6 12 ) Y3 )  )
( or ( <= ( + X3 14 ) X7 )  ( <= ( + X7 66 ) X3 )  ( <= ( + Y3 74 ) Y7 )  ( <= ( + Y7 78 ) Y3 )  )
( or ( <= ( + X3 14 ) X8 )  ( <= ( + X8 49 ) X3 )  ( <= ( + Y3 74 ) Y8 )  ( <= ( + Y8 42 ) Y3 )  )
( or ( <= ( + X3 14 ) X9 )  ( <= ( + X9 81 ) X3 )  ( <= ( + Y3 74 ) Y9 )  ( <= ( + Y9 27 ) Y3 )  )
( or ( <= ( + X3 14 ) X10 )  ( <= ( + X10 71 ) X3 )  ( <= ( + Y3 74 ) Y10 )  ( <= ( + Y10 95 ) Y3 )  )
( or ( <= ( + X3 14 ) X11 )  ( <= ( + X11 74 ) X3 )  ( <= ( + Y3 74 ) Y11 )  ( <= ( + Y11 61 ) Y3 )  )
( or ( <= ( + X4 68 ) X5 )  ( <= ( + X5 16 ) X4 )  ( <= ( + Y4 45 ) Y5 )  ( <= ( + Y5 83 ) Y4 )  )
( or ( <= ( + X4 68 ) X6 )  ( <= ( + X6 71 ) X4 )  ( <= ( + Y4 45 ) Y6 )  ( <= ( + Y6 12 ) Y4 )  )
( or ( <= ( + X4 68 ) X7 )  ( <= ( + X7 66 ) X4 )  ( <= ( + Y4 45 ) Y7 )  ( <= ( + Y7 78 ) Y4 )  )
( or ( <= ( + X4 68 ) X8 )  ( <= ( + X8 49 ) X4 )  ( <= ( + Y4 45 ) Y8 )  ( <= ( + Y8 42 ) Y4 )  )
( or ( <= ( + X4 68 ) X9 )  ( <= ( + X9 81 ) X4 )  ( <= ( + Y4 45 ) Y9 )  ( <= ( + Y9 27 ) Y4 )  )
( or ( <= ( + X4 68 ) X10 )  ( <= ( + X10 71 ) X4 )  ( <= ( + Y4 45 ) Y10 )  ( <= ( + Y10 95 ) Y4 )  )
( or ( <= ( + X4 68 ) X11 )  ( <= ( + X11 74 ) X4 )  ( <= ( + Y4 45 ) Y11 )  ( <= ( + Y11 61 ) Y4 )  )
( or ( <= ( + X5 16 ) X6 )  ( <= ( + X6 71 ) X5 )  ( <= ( + Y5 83 ) Y6 )  ( <= ( + Y6 12 ) Y5 )  )
( or ( <= ( + X5 16 ) X7 )  ( <= ( + X7 66 ) X5 )  ( <= ( + Y5 83 ) Y7 )  ( <= ( + Y7 78 ) Y5 )  )
( or ( <= ( + X5 16 ) X8 )  ( <= ( + X8 49 ) X5 )  ( <= ( + Y5 83 ) Y8 )  ( <= ( + Y8 42 ) Y5 )  )
( or ( <= ( + X5 16 ) X9 )  ( <= ( + X9 81 ) X5 )  ( <= ( + Y5 83 ) Y9 )  ( <= ( + Y9 27 ) Y5 )  )
( or ( <= ( + X5 16 ) X10 )  ( <= ( + X10 71 ) X5 )  ( <= ( + Y5 83 ) Y10 )  ( <= ( + Y10 95 ) Y5 )  )
( or ( <= ( + X5 16 ) X11 )  ( <= ( + X11 74 ) X5 )  ( <= ( + Y5 83 ) Y11 )  ( <= ( + Y11 61 ) Y5 )  )
( or ( <= ( + X6 71 ) X7 )  ( <= ( + X7 66 ) X6 )  ( <= ( + Y6 12 ) Y7 )  ( <= ( + Y7 78 ) Y6 )  )
( or ( <= ( + X6 71 ) X8 )  ( <= ( + X8 49 ) X6 )  ( <= ( + Y6 12 ) Y8 )  ( <= ( + Y8 42 ) Y6 )  )
( or ( <= ( + X6 71 ) X9 )  ( <= ( + X9 81 ) X6 )  ( <= ( + Y6 12 ) Y9 )  ( <= ( + Y9 27 ) Y6 )  )
( or ( <= ( + X6 71 ) X10 )  ( <= ( + X10 71 ) X6 )  ( <= ( + Y6 12 ) Y10 )  ( <= ( + Y10 95 ) Y6 )  )
( or ( <= ( + X6 71 ) X11 )  ( <= ( + X11 74 ) X6 )  ( <= ( + Y6 12 ) Y11 )  ( <= ( + Y11 61 ) Y6 )  )
( or ( <= ( + X7 66 ) X8 )  ( <= ( + X8 49 ) X7 )  ( <= ( + Y7 78 ) Y8 )  ( <= ( + Y8 42 ) Y7 )  )
( or ( <= ( + X7 66 ) X9 )  ( <= ( + X9 81 ) X7 )  ( <= ( + Y7 78 ) Y9 )  ( <= ( + Y9 27 ) Y7 )  )
( or ( <= ( + X7 66 ) X10 )  ( <= ( + X10 71 ) X7 )  ( <= ( + Y7 78 ) Y10 )  ( <= ( + Y10 95 ) Y7 )  )
( or ( <= ( + X7 66 ) X11 )  ( <= ( + X11 74 ) X7 )  ( <= ( + Y7 78 ) Y11 )  ( <= ( + Y11 61 ) Y7 )  )
( or ( <= ( + X8 49 ) X9 )  ( <= ( + X9 81 ) X8 )  ( <= ( + Y8 42 ) Y9 )  ( <= ( + Y9 27 ) Y8 )  )
( or ( <= ( + X8 49 ) X10 )  ( <= ( + X10 71 ) X8 )  ( <= ( + Y8 42 ) Y10 )  ( <= ( + Y10 95 ) Y8 )  )
( or ( <= ( + X8 49 ) X11 )  ( <= ( + X11 74 ) X8 )  ( <= ( + Y8 42 ) Y11 )  ( <= ( + Y11 61 ) Y8 )  )
( or ( <= ( + X9 81 ) X10 )  ( <= ( + X10 71 ) X9 )  ( <= ( + Y9 27 ) Y10 )  ( <= ( + Y10 95 ) Y9 )  )
( or ( <= ( + X9 81 ) X11 )  ( <= ( + X11 74 ) X9 )  ( <= ( + Y9 27 ) Y11 )  ( <= ( + Y11 61 ) Y9 )  )
( or ( <= ( + X10 71 ) X11 )  ( <= ( + X11 74 ) X10 )  ( <= ( + Y10 95 ) Y11 )  ( <= ( + Y11 61 ) Y10 )  )
( >= X0 0)
( <= ( + X0 36) Z)
( >= Y0 0)
( <= ( + Y0 20 ) 100)
( >= X1 0)
( <= ( + X1 86) Z)
( >= Y1 0)
( <= ( + Y1 35 ) 100)
( >= X2 0)
( <= ( + X2 36) Z)
( >= Y2 0)
( <= ( + Y2 92 ) 100)
( >= X3 0)
( <= ( + X3 14) Z)
( >= Y3 0)
( <= ( + Y3 74 ) 100)
( >= X4 0)
( <= ( + X4 68) Z)
( >= Y4 0)
( <= ( + Y4 45 ) 100)
( >= X5 0)
( <= ( + X5 16) Z)
( >= Y5 0)
( <= ( + Y5 83 ) 100)
( >= X6 0)
( <= ( + X6 71) Z)
( >= Y6 0)
( <= ( + Y6 12 ) 100)
( >= X7 0)
( <= ( + X7 66) Z)
( >= Y7 0)
( <= ( + Y7 78 ) 100)
( >= X8 0)
( <= ( + X8 49) Z)
( >= Y8 0)
( <= ( + Y8 42 ) 100)
( >= X9 0)
( <= ( + X9 81) Z)
( >= Y9 0)
( <= ( + Y9 27 ) 100)
( >= X10 0)
( <= ( + X10 71) Z)
( >= Y10 0)
( <= ( + Y10 95 ) 100)
( >= X11 0)
( <= ( + X11 74) Z)
( >= Y11 0)
( <= ( + Y11 61 ) 100)
) )
)(=> $phi $goal))))